networks/zoo_82_1640/zoo_82_1640-lower.txt
Number of groups: 61
Flow 6: {1 7 0} {7 48 0} 
Flow 9: {10 51 0} 
Flow 30: {1 8 0} {8 30 0} {30 31 0} {31 72 0} 
Flow 42: {2 33 0} {33 3 0} 
Flow 43: {2 4 0} 
Flow 95: {3 25 0} {25 22 0} {22 16 0} {16 57 0} 
Flow 116: {3 33 0} {33 38 0} {38 37 0} {37 78 0} 
Flow 122: {4 2 0} {2 43 0} 
Flow 127: {8 49 0} 
Flow 144: {4 33 0} {33 25 0} {25 66 0} 
Flow 168: {5 9 0} 
Flow 185: {5 8 0} {8 26 0} 
Flow 210: {6 22 0} {22 11 0} {11 52 0} 
Flow 241: {7 1 0} {1 42 0} 
Flow 266: {7 8 0} {8 10 0} {10 27 0} {27 68 0} 
Flow 323: {9 8 0} {8 25 0} {25 3 0} {3 44 0} 
Flow 325: {9 5 0} {5 46 0} 
Flow 409: {11 22 0} {22 25 0} {25 8 0} {8 9 0} {9 50 0} 
Flow 471: {12 22 0} {22 32 0} {32 73 0} 
Flow 501: {13 29 0} {29 22 0} {22 63 0} 
Flow 547: {13 28 0} {28 69 0} 
Flow 554: {14 22 0} {22 35 0} {35 76 0} 
Flow 576: {15 16 0} {16 17 0} {17 58 0} 
Flow 617: {16 18 0} {18 59 0} 
Flow 668: {17 16 0} {16 22 0} {22 29 0} {29 70 0} 
Flow 706: {18 16 0} {16 30 0} {30 27 0} 
Flow 739: {19 22 0} {22 20 0} {20 61 0} 
Flow 782: {20 22 0} {22 23 0} {23 64 0} 
Flow 813: {21 29 0} {29 13 0} 
Flow 825: {21 25 0} {25 26 0} {26 67 0} 
Flow 859: {22 19 0} {19 60 0} 
Flow 920: {23 22 0} {22 41 0} 
Flow 927: {24 30 0} {30 8 0} {8 7 0} 
Flow 959: {24 22 0} {22 40 0} {40 81 0} 
Flow 987: {25 29 0} {29 28 0} 
Flow 1005: {26 8 0} {8 5 0} 
Flow 1031: {26 25 0} {25 32 0} 
Flow 1041: {27 10 0} {10 8 0} {8 1 0} 
Flow 1055: {27 30 0} {30 16 0} {16 15 0} {15 56 0} 
Flow 1082: {28 29 0} {29 25 0} {25 33 0} {33 2 0} 
Flow 1094: {28 13 0} {13 14 0} {14 55 0} 
Flow 1149: {29 30 0} {30 71 0} 
Flow 1184: {30 24 0} 
Flow 1221: {31 30 0} {30 29 0} {29 21 0} 
Flow 1252: {32 22 0} {22 12 0} {12 53 0} 
Flow 1261: {32 25 0} {25 21 0} {21 62 0} 
Flow 1326: {34 38 0} {38 22 0} {22 6 0} {6 47 0} 
Flow 1358: {34 39 0} {39 80 0} 
Flow 1384: {35 22 0} {22 24 0} {24 65 0} 
Flow 1436: {36 37 0} 
Flow 1438: {36 38 0} {38 39 0} 
Flow 1444: {33 4 0} {4 45 0} 
Flow 1474: {37 38 0} {38 34 0} 
Flow 1476: {37 36 0} 
Flow 1513: {38 33 0} {33 74 0} 
Flow 1554: {39 34 0} {34 75 0} 
Flow 1556: {39 38 0} {38 36 0} {36 77 0} 
Flow 1598: {40 22 0} {22 38 0} {38 79 0} 
Flow 1600: {40 41 0} {41 82 0} 
Flow 1613: {41 22 0} {22 14 0} {14 13 0} {13 54 0} 
Flow 1640: {41 40 0} 
Time taken running everything: 7 seconds
