networks/zoo_82_1640/zoo_82_1640-lower.sol
<?xml version = "1.0" encoding="UTF-8" standalone="yes"?>
<CPLEXSolution version="1.2">
 <header
   problemName="networks/zoo_82_1640/zoo_82_1640-lower.lp"
   solutionName="incumbent"
   solutionIndex="-1"
   objectiveValue="61"
   solutionTypeValue="3"
   solutionTypeString="primal"
   solutionStatusValue="101"
   solutionStatusString="integer optimal solution"
   solutionMethodString="mip"
   primalFeasible="1"
   dualFeasible="1"
   MIPNodes="0"
   MIPIterations="2946"
   writeLevel="3"/>
 <quality
   epInt="1.0000000000000001e-05"
   epRHS="9.9999999999999995e-07"
   maxIntInfeas="0"
   maxPrimalInfeas="0"
   maxX="1"
   maxSlack="1"/>
 <variables>
  <variable name="Y(6,7)" index="416" value="1"/>
  <variable name="Y(9,10)" index="665" value="1"/>
  <variable name="Y(30,31)" index="2408" value="1"/>
  <variable name="Y(42,33)" index="3394" value="1"/>
  <variable name="Y(43,2)" index="3445" value="1"/>
  <variable name="Y(95,16)" index="7723" value="1"/>
  <variable name="Y(116,37)" index="9466" value="1"/>
  <variable name="Y(122,2)" index="9923" value="1"/>
  <variable name="Y(127,8)" index="10339" value="1"/>
  <variable name="Y(144,25)" index="11750" value="1"/>
  <variable name="Y(168,5)" index="13698" value="1"/>
  <variable name="Y(185,8)" index="15095" value="1"/>
  <variable name="Y(210,11)" index="17148" value="1"/>
  <variable name="Y(241,1)" index="19680" value="1"/>
  <variable name="Y(266,27)" index="21756" value="1"/>
  <variable name="Y(323,3)" index="26406" value="1"/>
  <variable name="Y(325,5)" index="26572" value="1"/>
  <variable name="Y(409,9)" index="33464" value="1"/>
  <variable name="Y(471,32)" index="38571" value="1"/>
  <variable name="Y(501,22)" index="41021" value="1"/>
  <variable name="Y(547,28)" index="44799" value="1"/>
  <variable name="Y(554,35)" index="45380" value="1"/>
  <variable name="Y(576,17)" index="47166" value="1"/>
  <variable name="Y(617,18)" index="50529" value="1"/>
  <variable name="Y(668,29)" index="54722" value="1"/>
  <variable name="Y(706,30)" index="57839" value="1"/>
  <variable name="Y(739,20)" index="60535" value="1"/>
  <variable name="Y(782,23)" index="64064" value="1"/>
  <variable name="Y(813,29)" index="66612" value="1"/>
  <variable name="Y(825,26)" index="67593" value="1"/>
  <variable name="Y(859,19)" index="70374" value="1"/>
  <variable name="Y(920,22)" index="75379" value="1"/>
  <variable name="Y(927,8)" index="75939" value="1"/>
  <variable name="Y(959,40)" index="78595" value="1"/>
  <variable name="Y(987,29)" index="80880" value="1"/>
  <variable name="Y(1005,8)" index="82335" value="1"/>
  <variable name="Y(1031,25)" index="84484" value="1"/>
  <variable name="Y(1041,8)" index="85287" value="1"/>
  <variable name="Y(1055,15)" index="86442" value="1"/>
  <variable name="Y(1082,33)" index="88674" value="1"/>
  <variable name="Y(1094,14)" index="89639" value="1"/>
  <variable name="Y(1149,30)" index="94165" value="1"/>
  <variable name="Y(1184,30)" index="97035" value="1"/>
  <variable name="Y(1221,29)" index="100068" value="1"/>
  <variable name="Y(1252,12)" index="102593" value="1"/>
  <variable name="Y(1261,21)" index="103340" value="1"/>
  <variable name="Y(1326,6)" index="108655" value="1"/>
  <variable name="Y(1358,39)" index="111312" value="1"/>
  <variable name="Y(1384,24)" index="113429" value="1"/>
  <variable name="Y(1436,36)" index="117705" value="1"/>
  <variable name="Y(1438,38)" index="117871" value="1"/>
  <variable name="Y(1444,4)" index="118329" value="1"/>
  <variable name="Y(1474,38)" index="120823" value="1"/>
  <variable name="Y(1476,37)" index="120986" value="1"/>
  <variable name="Y(1513,33)" index="124016" value="1"/>
  <variable name="Y(1554,34)" index="127379" value="1"/>
  <variable name="Y(1556,36)" index="127545" value="1"/>
  <variable name="Y(1598,38)" index="130991" value="1"/>
  <variable name="Y(1600,41)" index="131158" value="1"/>
  <variable name="Y(1613,13)" index="132196" value="1"/>
  <variable name="Y(1640,41)" index="134438" value="1"/>
  <variable name="X(1,7,6)" index="134485" value="1"/>
  <variable name="X(1,8,30)" index="136149" value="1"/>
  <variable name="X(1,42,241)" index="138000" value="1"/>
  <variable name="X(2,4,43)" index="139442" value="1"/>
  <variable name="X(2,33,42)" index="141081" value="1"/>
  <variable name="X(2,43,122)" index="142801" value="1"/>
  <variable name="X(3,25,95)" index="144414" value="1"/>
  <variable name="X(3,33,116)" index="146075" value="1"/>
  <variable name="X(3,44,323)" index="147922" value="1"/>
  <variable name="X(4,2,122)" index="149361" value="1"/>
  <variable name="X(4,33,144)" index="151023" value="1"/>
  <variable name="X(4,45,1444)" index="153963" value="1"/>
  <variable name="X(5,8,185)" index="154344" value="1"/>
  <variable name="X(5,9,168)" index="155967" value="1"/>
  <variable name="X(5,46,325)" index="157764" value="1"/>
  <variable name="X(6,22,210)" index="159289" value="1"/>
  <variable name="X(6,47,1326)" index="162045" value="1"/>
  <variable name="X(7,1,241)" index="162600" value="1"/>
  <variable name="X(7,8,266)" index="164265" value="1"/>
  <variable name="X(7,48,6)" index="165645" value="1"/>
  <variable name="X(8,1,1041)" index="168320" value="1"/>
  <variable name="X(8,5,1005)" index="169924" value="1"/>
  <variable name="X(8,7,927)" index="171486" value="1"/>
  <variable name="X(8,9,409)" index="172608" value="1"/>
  <variable name="X(8,10,266)" index="174105" value="1"/>
  <variable name="X(8,25,323)" index="175802" value="1"/>
  <variable name="X(8,26,185)" index="177304" value="1"/>
  <variable name="X(8,30,30)" index="178789" value="1"/>
  <variable name="X(8,49,127)" index="180526" value="1"/>
  <variable name="X(9,5,325)" index="182364" value="1"/>
  <variable name="X(9,8,323)" index="184002" value="1"/>
  <variable name="X(9,50,409)" index="185728" value="1"/>
  <variable name="X(10,8,1041)" index="188000" value="1"/>
  <variable name="X(10,27,266)" index="188865" value="1"/>
  <variable name="X(10,51,9)" index="190248" value="1"/>
  <variable name="X(11,22,409)" index="192288" value="1"/>
  <variable name="X(11,52,210)" index="193729" value="1"/>
  <variable name="X(12,22,471)" index="195630" value="1"/>
  <variable name="X(12,53,1252)" index="198051" value="1"/>
  <variable name="X(13,14,1094)" index="199533" value="1"/>
  <variable name="X(13,28,547)" index="200626" value="1"/>
  <variable name="X(13,29,501)" index="202220" value="1"/>
  <variable name="X(13,54,1613)" index="204972" value="1"/>
  <variable name="X(14,13,1613)" index="206612" value="1"/>
  <variable name="X(14,22,554)" index="207193" value="1"/>
  <variable name="X(14,55,1094)" index="209373" value="1"/>
  <variable name="X(15,16,576)" index="210495" value="1"/>
  <variable name="X(15,56,1055)" index="212614" value="1"/>
  <variable name="X(16,15,1055)" index="214254" value="1"/>
  <variable name="X(16,17,576)" index="215415" value="1"/>
  <variable name="X(16,18,617)" index="217096" value="1"/>
  <variable name="X(16,22,668)" index="218787" value="1"/>
  <variable name="X(16,30,706)" index="220465" value="1"/>
  <variable name="X(16,57,95)" index="221494" value="1"/>
  <variable name="X(17,16,668)" index="223707" value="1"/>
  <variable name="X(17,58,576)" index="225255" value="1"/>
  <variable name="X(18,16,706)" index="227025" value="1"/>
  <variable name="X(18,59,617)" index="228576" value="1"/>
  <variable name="X(19,22,739)" index="230338" value="1"/>
  <variable name="X(19,60,859)" index="232098" value="1"/>
  <variable name="X(20,22,782)" index="233661" value="1"/>
  <variable name="X(20,61,739)" index="235258" value="1"/>
  <variable name="X(21,25,825)" index="236984" value="1"/>
  <variable name="X(21,29,813)" index="238612" value="1"/>
  <variable name="X(21,62,1261)" index="240700" value="1"/>
  <variable name="X(22,6,1326)" index="242405" value="1"/>
  <variable name="X(22,11,210)" index="242929" value="1"/>
  <variable name="X(22,12,1252)" index="245611" value="1"/>
  <variable name="X(22,14,1613)" index="247612" value="1"/>
  <variable name="X(22,16,95)" index="247734" value="1"/>
  <variable name="X(22,19,859)" index="250138" value="1"/>
  <variable name="X(22,20,739)" index="251658" value="1"/>
  <variable name="X(22,23,782)" index="253341" value="1"/>
  <variable name="X(22,24,1384)" index="255583" value="1"/>
  <variable name="X(22,25,409)" index="256248" value="1"/>
  <variable name="X(22,29,668)" index="258147" value="1"/>
  <variable name="X(22,32,471)" index="259590" value="1"/>
  <variable name="X(22,35,554)" index="261313" value="1"/>
  <variable name="X(22,38,1598)" index="263997" value="1"/>
  <variable name="X(22,40,959)" index="264998" value="1"/>
  <variable name="X(22,41,920)" index="266599" value="1"/>
  <variable name="X(22,63,501)" index="267820" value="1"/>
  <variable name="X(23,22,920)" index="269879" value="1"/>
  <variable name="X(23,64,782)" index="271381" value="1"/>
  <variable name="X(24,22,959)" index="273198" value="1"/>
  <variable name="X(24,30,927)" index="274806" value="1"/>
  <variable name="X(24,65,1384)" index="276903" value="1"/>
  <variable name="X(25,3,323)" index="277482" value="1"/>
  <variable name="X(25,8,409)" index="279208" value="1"/>
  <variable name="X(25,21,1261)" index="281700" value="1"/>
  <variable name="X(25,22,95)" index="282174" value="1"/>
  <variable name="X(25,26,825)" index="284544" value="1"/>
  <variable name="X(25,29,987)" index="286346" value="1"/>
  <variable name="X(25,32,1031)" index="288030" value="1"/>
  <variable name="X(25,33,1082)" index="289721" value="1"/>
  <variable name="X(25,66,144)" index="290423" value="1"/>
  <variable name="X(26,8,1005)" index="292924" value="1"/>
  <variable name="X(26,25,1031)" index="294590" value="1"/>
  <variable name="X(26,67,825)" index="296024" value="1"/>
  <variable name="X(27,10,1041)" index="297880" value="1"/>
  <variable name="X(27,30,1055)" index="299534" value="1"/>
  <variable name="X(27,68,266)" index="300385" value="1"/>
  <variable name="X(28,13,1094)" index="302853" value="1"/>
  <variable name="X(28,29,1082)" index="304481" value="1"/>
  <variable name="X(28,69,547)" index="305586" value="1"/>
  <variable name="X(29,13,813)" index="307492" value="1"/>
  <variable name="X(29,21,1221)" index="309540" value="1"/>
  <variable name="X(29,22,501)" index="310460" value="1"/>
  <variable name="X(29,25,1082)" index="312681" value="1"/>
  <variable name="X(29,28,987)" index="314226" value="1"/>
  <variable name="X(29,30,1149)" index="316028" value="1"/>
  <variable name="X(29,70,668)" index="317187" value="1"/>
  <variable name="X(30,8,927)" index="319086" value="1"/>
  <variable name="X(30,16,1055)" index="320854" value="1"/>
  <variable name="X(30,24,1184)" index="322623" value="1"/>
  <variable name="X(30,27,706)" index="323785" value="1"/>
  <variable name="X(30,29,1221)" index="325940" value="1"/>
  <variable name="X(30,31,30)" index="326389" value="1"/>
  <variable name="X(30,71,1149)" index="329148" value="1"/>
  <variable name="X(31,30,1221)" index="330860" value="1"/>
  <variable name="X(31,72,30)" index="331309" value="1"/>
  <variable name="X(32,22,1252)" index="334171" value="1"/>
  <variable name="X(32,25,1261)" index="335820" value="1"/>
  <variable name="X(32,73,471)" index="336670" value="1"/>
  <variable name="X(33,2,1082)" index="338921" value="1"/>
  <variable name="X(33,3,42)" index="339521" value="1"/>
  <variable name="X(33,4,1444)" index="342563" value="1"/>
  <variable name="X(33,25,144)" index="342903" value="1"/>
  <variable name="X(33,38,116)" index="344515" value="1"/>
  <variable name="X(33,74,1513)" index="347552" value="1"/>
  <variable name="X(34,38,1326)" index="349005" value="1"/>
  <variable name="X(34,39,1358)" index="350677" value="1"/>
  <variable name="X(34,75,1554)" index="352513" value="1"/>
  <variable name="X(35,22,1384)" index="353983" value="1"/>
  <variable name="X(35,76,554)" index="354793" value="1"/>
  <variable name="X(36,37,1436)" index="357315" value="1"/>
  <variable name="X(36,38,1438)" index="358957" value="1"/>
  <variable name="X(36,77,1556)" index="360715" value="1"/>
  <variable name="X(37,36,1476)" index="362275" value="1"/>
  <variable name="X(37,38,1474)" index="363913" value="1"/>
  <variable name="X(37,78,116)" index="364195" value="1"/>
  <variable name="X(38,22,1326)" index="367045" value="1"/>
  <variable name="X(38,33,1513)" index="368872" value="1"/>
  <variable name="X(38,34,1474)" index="370473" value="1"/>
  <variable name="X(38,36,1556)" index="372195" value="1"/>
  <variable name="X(38,37,116)" index="372395" value="1"/>
  <variable name="X(38,39,1438)" index="375357" value="1"/>
  <variable name="X(38,79,1598)" index="377157" value="1"/>
  <variable name="X(39,34,1554)" index="378753" value="1"/>
  <variable name="X(39,38,1556)" index="380395" value="1"/>
  <variable name="X(39,80,1358)" index="381837" value="1"/>
  <variable name="X(40,22,1598)" index="383717" value="1"/>
  <variable name="X(40,41,1600)" index="385359" value="1"/>
  <variable name="X(40,81,959)" index="386358" value="1"/>
  <variable name="X(41,22,1613)" index="388652" value="1"/>
  <variable name="X(41,40,1640)" index="390319" value="1"/>
  <variable name="X(41,82,1600)" index="391919" value="1"/>
 </variables>
</CPLEXSolution>
